5 5
2 34 1 84 0 25 4 68 3 74
4 74 3 88 2 85 1 11 0 91
2 16 3 90 4 61 1 94 0 80
2 7 3 16 1 99 0 16 4 40
4 12 0 35 2 21 1 50 3 43
-1
0 1 2 4 5
0 2 3 5
0 2 3 5
0 2 5
0 3 5
-2
35 178 236 434
180 288 405
118 261 540
23 191
94 256

471 4
21 18 2 9 14
17 23 1 8 13
15 10 22 0 7
16 11 6 24 4
20 5 19 12 3
